ATOMIC_SPECIES
C   12.011        C.upf
N   14.007        N.upf
H   1.008         H.upf
Pb  207.2         Pb.upf
Br  79.904        Br.upf
Cl  35.45         Cl.upf
I   126.90447     I.upf

NUMERICAL_ORBITAL
C_gga_7au_100Ry_2s2p1d.orb
N_gga_7au_100Ry_2s2p1d.orb
H_gga_7au_100Ry_2s1p.orb
Pb_gga_7au_100Ry_2s2p2d1f.orb
Br_gga_8au_100Ry_2s2p1d.orb
Cl_gga_7au_100Ry_2s2p1d.orb
I_gga_7au_100Ry_2s2p1d.orb

LATTICE_CONSTANT
1.8897261258369282

LATTICE_VECTORS
6.30000000000000      0.00000000000000      0.00000000000000      
0.00000000000000      12.6000000000000      0.00000000000000      
0.00000000000000      0.00000000000000      12.6000000000000      

ATOMIC_POSITIONS
Direct

C
0.00000000000000
4
0.02962436853000 0.03689020690400 0.03906752152800 1 1 1 mag 0.0 
0.03762106564100 0.97927976456600 0.48567948055300 1 1 1 mag 0.0 
0.98694418923600 0.53632590824200 0.00971463545800 1 1 1 mag 0.0 
0.04013199825300 0.48289281135300 0.54485399344800 1 1 1 mag 0.0 

N
0.00000000000000
5
0.92922790132600 0.97322352571900 0.94310151299000 1 1 1 mag 0.0 
0.78545024337400 0.99416046682700 0.50182739301400 1 1 1 mag 0.0 
0.08054214920200 0.42429347995700 0.00184151927600 1 1 1 mag 0.0 
0.96397646023500 0.57417969262900 0.51315072957500 1 1 1 mag 0.0 
0.99675356979500 0.41783283858100 0.46809465408600 1 1 1 mag 0.0 

H
0.00000000000000
23
0.96561061670400 0.11329372256100 0.05318496401200 1 1 1 mag 0.0 
0.20441450030700 0.04813255806200 0.03036226855700 1 1 1 mag 0.0 
0.96300298938300 0.98125222384900 0.16089509594200 1 1 1 mag 0.0 
0.94732798591100 0.03454310714800 0.89033364896700 1 1 1 mag 0.0 
0.75080927734400 0.94306142015400 0.97198071344400 1 1 1 mag 0.0 
0.99863435414700 0.90665658455800 0.91493178792000 1 1 1 mag 0.0 
0.07726671965900 0.89594117452600 0.52420366072600 1 1 1 mag 0.0 
0.13959399032100 0.02917406493200 0.53461063317100 1 1 1 mag 0.0 
0.07642295650200 0.97444498239600 0.39464884283400 1 1 1 mag 0.0 
0.72753484848600 0.06929456567600 0.51886770265900 1 1 1 mag 0.0 
0.75215354988500 0.93613935161700 0.53811546624300 1 1 1 mag 0.0 
0.71423381003900 0.98862044373000 0.42782096955400 1 1 1 mag 0.0 
0.04252039848700 0.55552651521500 0.09449476744200 1 1 1 mag 0.0 
0.80403052603400 0.53247430526500 0.03449439053200 1 1 1 mag 0.0 
0.02332900121000 0.65255368665000 0.91408568504400 1 1 1 mag 0.0 
0.95562564613500 0.37539748623600 0.97828922929200 1 1 1 mag 0.0 
0.14614703740400 0.39341741208100 0.07336070358900 1 1 1 mag 0.0 
0.17869658559200 0.40799079812300 0.93414456176400 1 1 1 mag 0.0 
0.13836480179300 0.47708999482600 0.60894935589000 1 1 1 mag 0.0 
0.97303120503500 0.64503515811200 0.55057364449300 1 1 1 mag 0.0 
0.88361940811100 0.57041177236000 0.44551792358500 1 1 1 mag 0.0 
0.03955309804800 0.34088949729200 0.45981043343300 1 1 1 mag 0.0 
0.92216741616500 0.45550297855400 0.41014561859600 1 1 1 mag 0.0 

Pb
0.00000000000000
4
0.52522674906300 0.23993241388600 0.24342913753200 1 1 1 mag 0.0 
0.50651983347800 0.24671580734400 0.75427604248900 1 1 1 mag 0.0 
0.50597682106600 0.76644430204600 0.22989888352800 1 1 1 mag 0.0 
0.49951249012000 0.74921630795400 0.75404974904800 1 1 1 mag 0.0 

Br
0.00000000000000
2
0.50497392739100 0.25193746534300 0.00495586145500 1 1 1 mag 0.0 
0.95019391273300 0.24057567876700 0.24711702256600 1 1 1 mag 0.0 

Cl
0.00000000000000
2
0.51508751345900 0.97915722413800 0.26925155922500 1 1 1 mag 0.0 
0.57863846727000 0.79257285904400 0.99534638890300 1 1 1 mag 0.0 

I
0.00000000000000
8
0.49950462321200 0.23682792192000 0.50974023989800 1 1 1 mag 0.0 
0.50941855482600 0.99066465491000 0.75043221936200 1 1 1 mag 0.0 
0.99879301993600 0.23972340313400 0.75173437664000 1 1 1 mag 0.0 
0.48119127297600 0.49456377748700 0.25597907585400 1 1 1 mag 0.0 
0.98880747255800 0.73731176746300 0.25738029125200 1 1 1 mag 0.0 
0.51743687099100 0.76840312067600 0.49445861810000 1 1 1 mag 0.0 
0.46417936513500 0.50304952928600 0.74163464720500 1 1 1 mag 0.0 
0.99160512179100 0.77025569514600 0.76172325389500 1 1 1 mag 0.0 

